
Log started (V11.0.0) Tue May 27 01:04:21 2008

Tried aggregator 1 time.
Reduced MIP has 550 rows, 25001 columns, and 50050 nonzeros.
Presolve time =    0.19 sec.
Clique table members: 500.
MIP emphasis: balance optimality and feasibility.
MIP search method: dynamic search.
Parallel mode: none, using 1 thread.
Root relaxation solution time =    1.94 sec.

        Nodes                                         Cuts/
   Node  Left     Objective  IInf  Best Integer     Best Node    ItCnt     Gap

*     0+    0                        31131.0000      528.3400     1118   98.30%
*     0+    0                          608.0000      528.3400     1118   13.10%
      0     0      529.0000    95      608.0000     Fract: 10     1142   12.99%
*     0+    0                          592.0000      529.0000     1142   10.64%
      0     0      529.0000    96      592.0000     Covers: 1     1150   10.64%
      0     0      529.0000   100      592.0000     Covers: 2     1157   10.64%
*     0+    0                          590.0000      529.0000     1157   10.34%
*     0+    0                          577.0000      529.0000     1157    8.32%
*     0+    0                          573.0000      529.0000     1157    7.68%
*     0+    0                          571.0000      529.0000     1157    7.36%
*     0+    0                          570.0000      529.0000     1157    7.19%
*     0+    0                          560.0000      529.0000     1157    5.54%
*     0+    0                          559.0000      529.0000     1157    5.37%
      0     2      529.0000   100      559.0000      529.0000     1157    5.37%
*    10+   10                          558.0000      529.0000     1309    5.20%
*    10+   10                          555.0000      529.0000     1309    4.68%
*    40+   40                          554.0000      529.0000     2051    4.51%
*    80+   80                          553.0000      529.0000     3653    4.34%
    100   102      529.0000    87      553.0000      529.0000     4622    4.34%
*   110+  110                          552.0000      529.0000     5125    4.17%
*   110+  110                          551.0000      529.0000     5125    3.99%
*   190+  190                          550.0000      529.0000    13732    3.82%
    200   202      529.0000    91      550.0000      529.0000    15273    3.82%
*   270+  269                          549.0000      529.0000    24091    3.64%
    300   301      530.0000    90      549.0000      529.0000    28729    3.64%
*   340+  339                          548.0000      529.0000    40766    3.47%
*   360+  358                          547.0000      529.0000    48437    3.29%
*   400+  395                          546.0000      529.0000    67806    3.11%
*   400+  395                          545.0000      529.0000    67806    2.94%
*   400+  395                          544.0000      529.0000    67806    2.76%
    400   397      530.0000    89      544.0000      529.0000    67806    2.76%
    500   490      531.0000    83      544.0000      529.0000    99924    2.76%
*   511+  499                          542.0000      529.0000   102030    2.40%
*   514+  334                          541.0000      529.0000   108126    2.22%
    600   360      529.0000    97      541.0000      529.0000   111443    2.22%
*   613+  273                          540.0000      529.0000   112208    2.04%
*   613+  214                          539.0000      529.0000   112208    1.86%
    700   239      529.0000    92      539.0000      529.0000   119572    1.86%
    800   288      530.0000    87      539.0000      529.0000   133328    1.86%
    900   385      530.0000    88      539.0000      529.0000   161464    1.86%
   1000   483      531.0000    90      539.0000      529.0000   188426    1.86%
Elapsed time = 330.14 sec. (tree size =  6.66 MB, solutions = 27)
   1100   578      532.0000    85      539.0000      529.0000   227691    1.86%
   1200   678      532.0000    85      539.0000      529.0000   241196    1.86%
   1300   777      533.0000    82      539.0000      529.0000   280052    1.86%
   1400   877      533.0000    93      539.0000      529.0000   330734    1.86%
   1500   975      535.0000    70      539.0000      529.0000   367979    1.86%
   1600  1075      535.0000    86      539.0000      529.0000   396501    1.86%
   1700  1171      536.0000    79      539.0000      529.0000   440409    1.86%
   1800  1271      536.0000    79      539.0000      529.0000   447782    1.86%
   1900  1366      537.0000    78      539.0000      529.0000   455143    1.86%
   2000  1461      538.0000    67      539.0000      529.0000   463564    1.86%
Elapsed time = 670.86 sec. (tree size = 22.29 MB, solutions = 27)
   2100  1549      529.0000    94      539.0000      529.0000   471831    1.86%
   2200  1648      529.0000    87      539.0000      529.0000   483717    1.86%
   2300  1740      529.0000    85      539.0000      529.0000   503807    1.86%
   2400  1826      529.0041    94      539.0000      529.0000   534158    1.86%
   2500  1924      530.0000    88      539.0000      529.0000   556882    1.86%
   2600  2007      531.0000    78      539.0000      529.0000   616946    1.86%
   2700  2107      531.0000    90      539.0000      529.0000   656221    1.86%
*  2713+ 1981                          538.0000      529.0000   672193    1.67%
   2800  2067      532.0000    75      538.0000      529.0000   693978    1.67%
   2900  2167      532.0000    94      538.0000      529.0000   746331    1.67%
   3000  2261      533.0000    86      538.0000      529.0000   812174    1.67%
Elapsed time = 1065.30 sec. (tree size = 34.92 MB, solutions = 28)
   3100  2356      534.0000    77      538.0000      529.0000   847673    1.67%
   3200  2452      535.0000    79      538.0000      529.0000   855951    1.67%
   3300  2546      536.0000    55      538.0000      529.0000   860281    1.67%
   3400  2638      537.0000    57      538.0000      529.0000   863292    1.67%
   3500  2718      529.0000    98      538.0000      529.0000   920353    1.67%
   3600  2803      530.0000    92      538.0000      529.0000   942401    1.67%
   3700  2903      530.0000    88      538.0000      529.0000   958750    1.67%
   3800  3002      534.0000    89      538.0000      529.0000   973236    1.67%
   3900  3102      537.0000    78      538.0000      529.0000   982021    1.67%
   4000  3201      532.0000    77      538.0000      529.0000   992157    1.67%
Elapsed time = 1350.69 sec. (tree size = 52.63 MB, solutions = 28)
   4100  3301      532.0000    88      538.0000      529.0000   994604    1.67%
   4200  3394      530.0000    89      538.0000      529.0000  1006193    1.67%
   4300  3493      531.0000    91      538.0000      529.0000  1031701    1.67%
   4400  3591      530.0000    93      538.0000      529.0000  1049506    1.67%
   4500  3691      530.0000    94      538.0000      529.0000  1076114    1.67%
   4600  3790      530.0000    94      538.0000      529.0000  1101136    1.67%
   4700  3889      531.0000    90      538.0000      529.0000  1119609    1.67%
   4800  3988      530.0000    92      538.0000      529.0000  1137780    1.67%
   4900  4088      537.0000    84      538.0000      529.0000  1145876    1.67%
   5000  4187      536.0000    67      538.0000      529.0000  1156224    1.67%
Elapsed time = 1621.61 sec. (tree size = 73.97 MB, solutions = 28)
   5100  4287      536.0000    77      538.0000      529.0000  1162218    1.67%
   5200  4379      530.0000    97      538.0000      529.0000  1184583    1.67%
   5300  4479      530.0000    99      538.0000      529.0000  1195106    1.67%
   5400  4577      530.0000    96      538.0000      529.0000  1210621    1.67%
   5500  4677      530.0000   104      538.0000      529.0000  1229359    1.67%
   5600  4776      530.0000    96      538.0000      529.0000  1247041    1.67%
   5700  4876      535.0000    83      538.0000      529.0000  1256130    1.67%
   5800  4975      530.0000    97      538.0000      529.0000  1271020    1.67%
   5900  5074      532.0000    76      538.0000      529.0000  1287869    1.67%
   6000  5165      529.0000   115      538.0000      529.0000  1318854    1.67%
Elapsed time = 1889.97 sec. (tree size = 95.64 MB, solutions = 28)
   6100  5256      530.0000    92      538.0000      529.0000  1336161    1.67%
   6200  5355      530.0000    92      538.0000      529.0000  1371020    1.67%
   6300  5455      537.0000    74      538.0000      529.0000  1399168    1.67%
   6400  5547      529.0065   110      538.0000      529.0000  1476904    1.67%
   6500  5646      530.0000    97      538.0000      529.0000  1546458    1.67%
   6600  5745      530.0000    90      538.0000      529.0000  1580707    1.67%
   6700  5845      530.0000    91      538.0000      529.0000  1637888    1.67%
   6800  5937      529.0000    99      538.0000      529.0000  1741926    1.67%
   6900  6036      530.0000    85      538.0000      529.0000  1810703    1.67%
   7000  6135      530.0000    89      538.0000      529.0000  1847484    1.67%
Elapsed time = 2475.02 sec. (tree size = 117.66 MB, solutions = 28)
   7100  6235      536.0000    63      538.0000      529.0000  1889403    1.67%
   7200  6334      530.0000   100      538.0000      529.0000  1919813    1.67%
   7300  6434      531.0000    86      538.0000      529.0000  1972087    1.67%
   7400  6523      529.0000   108      538.0000      529.0000  2059575    1.67%
Began writing nodes to disk (directory ./cpxa04064 created)
   7500  6622      530.0000    94      538.0000      529.0000  2105515    1.67%
   7600  6720      529.0000    88      538.0000      529.0000  2164514    1.67%
   7700  6814      530.0000    93      538.0000      529.0000  2222361    1.67%
   7800  6913      530.0000    90      538.0000      529.0000  2244945    1.67%
   7900  7013      530.0000    89      538.0000      529.0000  2281698    1.67%
   8000  7112      530.0000    90      538.0000      529.0000  2303980    1.67%
Elapsed time = 3012.83 sec. (tree size = 140.42 MB, solutions = 28)
Nodefile size = 12.58 MB (8.89 MB after compression)
   8100  7211      531.0000    90      538.0000      529.0000  2342643    1.67%
   8200  7310      530.0000    93      538.0000      529.0000  2372764    1.67%
   8300  7410      537.0000    58      538.0000      529.0000  2397712    1.67%
   8400  7502      529.0000    93      538.0000      529.0000  2475925    1.67%
   8500  7600      530.0000    83      538.0000      529.0000  2521861    1.67%
   8600  7699      530.0000    92      538.0000      529.0000  2553122    1.67%
   8700  7799      532.0000    80      538.0000      529.0000  2606361    1.67%
   8800  7898      530.0000    92      538.0000      529.0000  2634426    1.67%
   8900  7998      531.0000    82      538.0000      529.0000  2679422    1.67%
   9000  8097      534.0000    61      538.0000      529.0000  2710009    1.67%
Elapsed time = 3523.38 sec. (tree size = 164.56 MB, solutions = 28)
Nodefile size = 36.68 MB (24.90 MB after compression)
   9100  8197      534.0000    83      538.0000      529.0000  2727212    1.67%
   9200  8293      529.0000   111      538.0000      529.0000  2796269    1.67%
*  9213+ 7901                          537.0000      529.0000  2802246    1.49%
*  9213+ 7453                          536.0000      529.0000  2802246    1.31%
   9300  7540      530.0000    92      536.0000      529.0000  2834750    1.31%
   9400  7634      530.0000    82      536.0000      529.0000  2893926    1.31%
   9500  7734      530.0000    89      536.0000      529.0000  2927703    1.31%
   9600  7833      530.0000    94      536.0000      529.0000  2955140    1.31%
   9700  7933      530.0000    93      536.0000      529.0000  3001265    1.31%
   9800  8032      530.0000    90      536.0000      529.0000  3054791    1.31%
   9900  8132      530.0000    94      536.0000      529.0000  3100880    1.31%
  10000  8230      529.0000    97      536.0000      529.0000  3169582    1.31%
Elapsed time = 4124.80 sec. (tree size = 173.42 MB, solutions = 30)
Nodefile size = 46.02 MB (30.85 MB after compression)
  10100  8324      530.0000    79      536.0000      529.0000  3226767    1.31%
  10200  8423      530.0000    93      536.0000      529.0000  3242092    1.31%
  10300  8523      532.0000    81      536.0000      529.0000  3263600    1.31%
  10400  8622      530.0000    93      536.0000      529.0000  3292985    1.31%
  10500  8722      530.0000    91      536.0000      529.0000  3351300    1.31%
  10600  8821      534.0000    82      536.0000      529.0000  3368591    1.31%
  10700  8921      534.0000    79      536.0000      529.0000  3377103    1.31%
  10800  9019      530.0000    85      536.0000      529.0000  3409402    1.31%
  10900  9119      530.0000    90      536.0000      529.0000  3463546    1.31%
  11000  9218      530.0000    85      536.0000      529.0000  3493057    1.31%
Elapsed time = 4590.66 sec. (tree size = 199.79 MB, solutions = 30)
Nodefile size = 72.67 MB (50.46 MB after compression)
  11100  9318      535.0000    86      536.0000      529.0000  3500159    1.31%
  11200  9418      531.0000    78      536.0000      529.0000  3514818    1.31%
  11300  9518      531.0000    80      536.0000      529.0000  3587696    1.31%
  11400  9612      530.0000    82      536.0000      529.0000  3637025    1.31%
  11500  9712      530.0000    93      536.0000      529.0000  3681731    1.31%
  11600  9806      529.0000    98      536.0000      529.0000  3750182    1.31%
  11700  9898      530.0000    90      536.0000      529.0000  3831628    1.31%
  11800  9997      530.0000    85      536.0000      529.0000  3850959    1.31%
  11900 10096      531.0000    85      536.0000      529.0000  3908836    1.31%
  12000 10195      530.0000    94      536.0000      529.0000  3926279    1.31%
Elapsed time = 5172.44 sec. (tree size = 227.26 MB, solutions = 30)
Nodefile size = 99.26 MB (70.43 MB after compression)
  12100 10295      535.0000    48      536.0000      529.0000  3968732    1.31%
  12200 10394      530.0000    87      536.0000      529.0000  3987998    1.31%
  12300 10494      530.0000    88      536.0000      529.0000  4042921    1.31%
  12400 10591      529.0000    96      536.0000      529.0000  4095407    1.31%
  12500 10689      530.0000    90      536.0000      529.0000  4135951    1.31%
  12600 10788      530.0000    87      536.0000      529.0000  4179571    1.31%
  12700 10888      531.0000    82      536.0000      529.0000  4204569    1.31%
  12800 10987      530.0000    90      536.0000      529.0000  4226983    1.31%
  12900 11087      530.0000    87      536.0000      529.0000  4253574    1.31%
  13000 11186      530.0000    95      536.0000      529.0000  4278697    1.31%
Elapsed time = 5668.95 sec. (tree size = 255.84 MB, solutions = 30)
Nodefile size = 127.87 MB (92.03 MB after compression)
  13100 11286      530.0000    91      536.0000      529.0000  4306681    1.31%
  13200 11382      530.0000    91      536.0000      529.0000  4344319    1.31%
  13300 11482      530.0000    91      536.0000      529.0000  4420819    1.31%
  13400 11581      530.0000    97      536.0000      529.0000  4456281    1.31%
  13500 11681      530.0000    89      536.0000      529.0000  4549443    1.31%
  13600 11780      530.0000    89      536.0000      529.0000  4588832    1.31%
  13700 11879      531.0000    77      536.0000      529.0000  4639510    1.31%
  13800 11978      530.0000    93      536.0000      529.0000  4655221    1.31%
  13900 12078      534.0000    73      536.0000      529.0000  4679375    1.31%
  14000 12174      530.0000    90      536.0000      529.0000  4710771    1.31%
Elapsed time = 6262.98 sec. (tree size = 285.73 MB, solutions = 30)
Nodefile size = 158.41 MB (115.43 MB after compression)
  14100 12274      530.0000    93      536.0000      529.0000  4785681    1.31%
  14200 12373      530.0000    91      536.0000      529.0000  4813293    1.31%
  14300 12473      530.0000    89      536.0000      529.0000  4864637    1.31%
  14400 12572      530.0000    93      536.0000      529.0000  4924660    1.31%
  14500 12672      530.0000    89      536.0000      529.0000  5005012    1.31%
  14600 12771      530.0000    99      536.0000      529.0000  5045571    1.31%
  14700 12871      532.0000    78      536.0000      529.0000  5075156    1.31%
  14800 12970      530.0000    85      536.0000      529.0000  5125638    1.31%
  14900 13070      530.0000    91      536.0000      529.0000  5215038    1.31%
  15000 13169      530.0000    97      536.0000      529.0000  5261310    1.31%
Elapsed time = 6955.13 sec. (tree size = 317.05 MB, solutions = 30)
Nodefile size = 190.00 MB (140.39 MB after compression)
  15100 13269      534.0000    64      536.0000      529.0000  5299363    1.31%
  15200 13368      532.0000    75      536.0000      529.0000  5332539    1.31%
  15300 13468      535.0000    79      536.0000      529.0000  5335585    1.31%
  15400 13563      530.0000   100      536.0000      529.0000  5378772    1.31%

Cover cuts applied:  1487
Mixed integer rounding cuts applied:  19
Zero-half cuts applied:  1
Gomory fractional cuts applied:  5

Solution pool: 30 solutions saved.

MIP - Time limit exceeded, integer feasible:  Objective = 5.3600000000e+002
Current MIP best bound = 5.2900000000e+002 (gap = 7, 1.31%)
Solution time = 7200.08 sec.  Iterations = 5418795  Nodes = 15488 (13650)


Incumbent solution
Variable Name           Solution Value
Cmax                        536.000000
X_1_29                        1.000000
X_2_37                        1.000000
X_3_12                        1.000000
X_4_8                         1.000000
X_5_46                        1.000000
X_6_40                        1.000000
X_7_35                        1.000000
X_8_3                         1.000000
X_9_31                        1.000000
X_10_14                       1.000000
X_11_21                       1.000000
X_12_34                       1.000000
X_13_30                       1.000000
X_14_11                       1.000000
X_15_48                       1.000000
X_16_35                       1.000000
X_17_23                       1.000000
X_18_49                       1.000000
X_19_40                       1.000000
X_20_46                       1.000000
X_21_15                       1.000000
X_22_26                       1.000000
X_23_3                        1.000000
X_24_33                       1.000000
X_25_49                       1.000000
X_26_31                       1.000000
X_27_46                       1.000000
X_28_7                        1.000000
X_29_18                       1.000000
X_30_10                       1.000000
X_31_20                       1.000000
X_32_29                       1.000000
X_33_50                       1.000000
X_34_19                       1.000000
X_35_2                        1.000000
X_36_28                       1.000000
X_37_21                       1.000000
X_38_10                       1.000000
X_39_5                        1.000000
X_40_27                       1.000000
X_41_43                       1.000000
X_42_47                       1.000000
X_43_5                        1.000000
X_44_5                        1.000000
X_45_27                       1.000000
X_46_17                       1.000000
X_47_45                       1.000000
X_48_1                        1.000000
X_49_17                       1.000000
X_50_28                       1.000000
X_51_35                       1.000000
X_52_12                       1.000000
X_53_49                       1.000000
X_54_14                       1.000000
X_55_39                       1.000000
X_56_41                       1.000000
X_57_38                       1.000000
X_58_40                       1.000000
X_59_17                       1.000000
X_60_20                       1.000000
X_61_41                       1.000000
X_62_49                       1.000000
X_63_15                       1.000000
X_64_28                       1.000000
X_65_39                       1.000000
X_66_23                       1.000000
X_67_45                       1.000000
X_68_23                       1.000000
X_69_30                       1.000000
X_70_30                       1.000000
X_71_17                       1.000000
X_72_38                       1.000000
X_73_26                       1.000000
X_74_22                       1.000000
X_75_4                        1.000000
X_76_2                        1.000000
X_77_18                       1.000000
X_78_5                        1.000000
X_79_44                       1.000000
X_80_29                       1.000000
X_81_35                       1.000000
X_82_11                       1.000000
X_83_37                       1.000000
X_84_14                       1.000000
X_85_44                       1.000000
X_86_27                       1.000000
X_87_11                       1.000000
X_88_39                       1.000000
X_89_21                       1.000000
X_90_13                       1.000000
X_91_10                       1.000000
X_92_50                       1.000000
X_93_15                       1.000000
X_94_12                       1.000000
X_95_32                       1.000000
X_96_41                       1.000000
X_97_29                       1.000000
X_98_33                       1.000000
X_99_40                       1.000000
X_100_31                      1.000000
X_101_20                      1.000000
X_102_27                      1.000000
X_103_35                      1.000000
X_104_16                      1.000000
X_105_32                      1.000000
X_106_16                      1.000000
X_107_20                      1.000000
X_108_30                      1.000000
X_109_29                      1.000000
X_110_4                       1.000000
X_111_26                      1.000000
X_112_47                      1.000000
X_113_28                      1.000000
X_114_35                      1.000000
X_115_17                      1.000000
X_116_12                      1.000000
X_117_6                       1.000000
X_118_29                      1.000000
X_119_48                      1.000000
X_120_32                      1.000000
X_121_7                       1.000000
X_122_43                      1.000000
X_123_32                      1.000000
X_124_45                      1.000000
X_125_2                       1.000000
X_126_31                      1.000000
X_127_45                      1.000000
X_128_32                      1.000000
X_129_33                      1.000000
X_130_9                       1.000000
X_131_36                      1.000000
X_132_6                       1.000000
X_133_35                      1.000000
X_134_29                      1.000000
X_135_28                      1.000000
X_136_48                      1.000000
X_137_9                       1.000000
X_138_49                      1.000000
X_139_9                       1.000000
X_140_21                      1.000000
X_141_18                      1.000000
X_142_24                      1.000000
X_143_43                      1.000000
X_144_20                      1.000000
X_145_33                      1.000000
X_146_22                      1.000000
X_147_35                      1.000000
X_148_34                      1.000000
X_149_36                      1.000000
X_150_25                      1.000000
X_151_2                       1.000000
X_152_38                      1.000000
X_153_43                      1.000000
X_154_39                      1.000000
X_155_48                      1.000000
X_156_5                       1.000000
X_157_9                       1.000000
X_158_25                      1.000000
X_159_14                      1.000000
X_160_30                      1.000000
X_161_25                      1.000000
X_162_29                      1.000000
X_163_47                      1.000000
X_164_34                      1.000000
X_165_8                       1.000000
X_166_41                      1.000000
X_167_9                       1.000000
X_168_23                      1.000000
X_169_39                      1.000000
X_170_1                       1.000000
X_171_19                      1.000000
X_172_10                      1.000000
X_173_45                      1.000000
X_174_47                      1.000000
X_175_48                      1.000000
X_176_13                      1.000000
X_177_18                      1.000000
X_178_14                      1.000000
X_179_25                      1.000000
X_180_12                      1.000000
X_181_8                       1.000000
X_182_43                      1.000000
X_183_2                       1.000000
X_184_13                      1.000000
X_185_45                      1.000000
X_186_21                      1.000000
X_187_12                      1.000000
X_188_47                      1.000000
X_189_40                      1.000000
X_190_23                      1.000000
X_191_32                      1.000000
X_192_15                      1.000000
X_193_42                      1.000000
X_194_23                      1.000000
X_195_18                      1.000000
X_196_6                       1.000000
X_197_19                      1.000000
X_198_44                      1.000000
X_199_2                       1.000000
X_200_37                      1.000000
X_201_7                       1.000000
X_202_4                       1.000000
X_203_7                       1.000000
X_204_39                      1.000000
X_205_24                      1.000000
X_206_49                      1.000000
X_207_34                      1.000000
X_208_35                      1.000000
X_209_16                      1.000000
X_210_37                      1.000000
X_211_42                      1.000000
X_212_11                      1.000000
X_213_16                      1.000000
X_214_46                      1.000000
X_215_42                      1.000000
X_216_21                      1.000000
X_217_19                      1.000000
X_218_3                       1.000000
X_219_33                      1.000000
X_220_4                       1.000000
X_221_30                      1.000000
X_222_12                      1.000000
X_223_24                      1.000000
X_224_17                      1.000000
X_225_32                      1.000000
X_226_30                      1.000000
X_227_36                      1.000000
X_228_39                      1.000000
X_229_18                      1.000000
X_230_18                      1.000000
X_231_42                      1.000000
X_232_11                      1.000000
X_233_38                      1.000000
X_234_1                       1.000000
X_235_42                      1.000000
X_236_31                      1.000000
X_237_43                      1.000000
X_238_50                      1.000000
X_239_4                       1.000000
X_240_3                       1.000000
X_241_27                      1.000000
X_242_44                      1.000000
X_243_32                      1.000000
X_244_4                       1.000000
X_245_30                      1.000000
X_246_2                       1.000000
X_247_1                       1.000000
X_248_26                      1.000000
X_249_10                      1.000000
X_250_11                      1.000000
X_251_17                      1.000000
X_252_8                       1.000000
X_253_40                      1.000000
X_254_25                      1.000000
X_255_46                      1.000000
X_256_49                      1.000000
X_257_2                       1.000000
X_258_49                      1.000000
X_259_31                      1.000000
X_260_6                       1.000000
X_261_46                      1.000000
X_262_24                      1.000000
X_263_4                       1.000000
X_264_4                       1.000000
X_265_34                      1.000000
X_266_14                      1.000000
X_267_8                       1.000000
X_268_19                      1.000000
X_269_19                      1.000000
X_270_41                      1.000000
X_271_48                      1.000000
X_272_17                      1.000000
X_273_20                      1.000000
X_274_33                      1.000000
X_275_7                       1.000000
X_276_20                      1.000000
X_277_36                      1.000000
X_278_7                       1.000000
X_279_20                      1.000000
X_280_2                       1.000000
X_281_25                      1.000000
X_282_21                      1.000000
X_283_30                      1.000000
X_284_6                       1.000000
X_285_9                       1.000000
X_286_48                      1.000000
X_287_8                       1.000000
X_288_22                      1.000000
X_289_31                      1.000000
X_290_1                       1.000000
X_291_43                      1.000000
X_292_5                       1.000000
X_293_6                       1.000000
X_294_15                      1.000000
X_295_25                      1.000000
X_296_33                      1.000000
X_297_34                      1.000000
X_298_15                      1.000000
X_299_1                       1.000000
X_300_11                      1.000000
X_301_18                      1.000000
X_302_46                      1.000000
X_303_48                      1.000000
X_304_36                      1.000000
X_305_11                      1.000000
X_306_4                       1.000000
X_307_42                      1.000000
X_308_10                      1.000000
X_309_32                      1.000000
X_310_44                      1.000000
X_311_14                      1.000000
X_312_2                       1.000000
X_313_50                      1.000000
X_314_35                      1.000000
X_315_12                      1.000000
X_316_50                      1.000000
X_317_36                      1.000000
X_318_34                      1.000000
X_319_10                      1.000000
X_320_10                      1.000000
X_321_50                      1.000000
X_322_5                       1.000000
X_323_34                      1.000000
X_324_6                       1.000000
X_325_22                      1.000000
X_326_7                       1.000000
X_327_23                      1.000000
X_328_12                      1.000000
X_329_23                      1.000000
X_330_5                       1.000000
X_331_32                      1.000000
X_332_47                      1.000000
X_333_6                       1.000000
X_334_10                      1.000000
X_335_17                      1.000000
X_336_2                       1.000000
X_337_10                      1.000000
X_338_4                       1.000000
X_339_22                      1.000000
X_340_16                      1.000000
X_341_31                      1.000000
X_342_6                       1.000000
X_343_41                      1.000000
X_344_26                      1.000000
X_345_47                      1.000000
X_346_28                      1.000000
X_347_42                      1.000000
X_348_9                       1.000000
X_349_29                      1.000000
X_350_27                      1.000000
X_351_37                      1.000000
X_352_50                      1.000000
X_353_49                      1.000000
X_354_23                      1.000000
X_355_23                      1.000000
X_356_14                      1.000000
X_357_17                      1.000000
X_358_31                      1.000000
X_359_33                      1.000000
X_360_29                      1.000000
X_361_38                      1.000000
X_362_19                      1.000000
X_363_7                       1.000000
X_364_39                      1.000000
X_365_2                       1.000000
X_366_33                      1.000000
X_367_21                      1.000000
X_368_18                      1.000000
X_369_28                      1.000000
X_370_9                       1.000000
X_371_27                      1.000000
X_372_5                       1.000000
X_373_4                       1.000000
X_374_13                      1.000000
X_375_25                      1.000000
X_376_40                      1.000000
X_377_8                       1.000000
X_378_4                       1.000000
X_379_24                      1.000000
X_380_2                       1.000000
X_381_26                      1.000000
X_382_14                      1.000000
X_383_27                      1.000000
X_384_26                      1.000000
X_385_22                      1.000000
X_386_34                      1.000000
X_387_8                       1.000000
X_388_45                      1.000000
X_389_13                      1.000000
X_390_37                      1.000000
X_391_44                      1.000000
X_392_39                      1.000000
X_393_31                      1.000000
X_394_30                      1.000000
X_395_9                       1.000000
X_396_13                      1.000000
X_397_22                      1.000000
X_398_26                      1.000000
X_399_2                       1.000000
X_400_21                      1.000000
X_401_16                      1.000000
X_402_43                      1.000000
X_403_44                      1.000000
X_404_11                      1.000000
X_405_4                       1.000000
X_406_22                      1.000000
X_407_33                      1.000000
X_408_31                      1.000000
X_409_34                      1.000000
X_410_16                      1.000000
X_411_38                      1.000000
X_412_3                       1.000000
X_413_7                       1.000000
X_414_28                      1.000000
X_415_24                      1.000000
X_416_25                      1.000000
X_417_48                      1.000000
X_418_32                      1.000000
X_419_37                      1.000000
X_420_34                      1.000000
X_421_3                       1.000000
X_422_39                      1.000000
X_423_19                      1.000000
X_424_44                      1.000000
X_425_8                       1.000000
X_426_38                      1.000000
X_427_15                      1.000000
X_428_6                       1.000000
X_429_31                      1.000000
X_430_50                      1.000000
X_431_19                      1.000000
X_432_36                      1.000000
X_433_40                      1.000000
X_434_2                       1.000000
X_435_35                      1.000000
X_436_40                      1.000000
X_437_46                      1.000000
X_438_48                      1.000000
X_439_44                      1.000000
X_440_33                      1.000000
X_441_41                      1.000000
X_442_33                      1.000000
X_443_38                      1.000000
X_444_4                       1.000000
X_445_15                      1.000000
X_446_1                       1.000000
X_447_11                      1.000000
X_448_32                      1.000000
X_449_29                      1.000000
X_450_48                      1.000000
X_451_12                      1.000000
X_452_20                      1.000000
X_453_41                      1.000000
X_454_15                      1.000000
X_455_10                      1.000000
X_456_24                      1.000000
X_457_35                      1.000000
X_458_22                      1.000000
X_459_35                      1.000000
X_460_28                      1.000000
X_461_26                      1.000000
X_462_16                      1.000000
X_463_14                      1.000000
X_464_29                      1.000000
X_465_18                      1.000000
X_466_13                      1.000000
X_467_35                      1.000000
X_468_4                       1.000000
X_469_49                      1.000000
X_470_27                      1.000000
X_471_24                      1.000000
X_472_13                      1.000000
X_473_47                      1.000000
X_474_40                      1.000000
X_475_43                      1.000000
X_476_36                      1.000000
X_477_27                      1.000000
X_478_1                       1.000000
X_479_20                      1.000000
X_480_18                      1.000000
X_481_50                      1.000000
X_482_47                      1.000000
X_483_46                      1.000000
X_484_21                      1.000000
X_485_29                      1.000000
X_486_5                       1.000000
X_487_31                      1.000000
X_488_45                      1.000000
X_489_12                      1.000000
X_490_41                      1.000000
X_491_3                       1.000000
X_492_48                      1.000000
X_493_49                      1.000000
X_494_37                      1.000000
X_495_36                      1.000000
X_496_28                      1.000000
X_497_5                       1.000000
X_498_21                      1.000000
X_499_12                      1.000000
X_500_50                      1.000000
All other variables in the range 1-25001 are 0.
